20
587 233 220
96 95 68
69 61 35
107 70 55
92 85 34
96 60 31
66 38 38
63 57 36
51 31 31
100 75 44
78 66 53
33 32 29
81 72 45
88 57 38
52 34 21
112 69 31
63 59 57
76 65 48
92 60 46
118 55 52
96 93 22
thpack7_72